51	3

10	10	10	

0	0	0	0	3	2	3	6	
2	5	4	3	2	4	7	
1	5	2	2	3	4	5	7	
7	2	4	4	3	9	10	15	
4	3	5	2	2	9	10	
1	3	5	2	2	7	8	
2	5	5	4	2	9	10	
1	4	1	4	2	9	14	
3	3	2	2	2	11	17	
3	3	2	4	2	12	17	
3	5	5	4	2	13	20	
8	1	5	4	1	20	
7	2	4	6	1	23	
2	4	1	4	1	16	
1	3	3	2	1	16	
1	1	4	4	1	18	
4	2	2	2	1	21	
1	4	5	4	1	19	
3	2	2	1	1	25	
1	3	2	3	1	22	
1	5	3	3	1	24	
1	3	2	1	1	25	
1	1	0	4	1	25	
1	1	6	2	1	26	
6	0	1	3	1	27	
5	2	2	2	3	27	28	31	
2	5	4	3	2	29	32	
1	5	2	2	3	29	30	32	
7	2	4	4	3	34	35	40	
4	3	5	2	2	34	35	
1	3	5	2	2	32	33	
2	5	5	4	2	34	35	
1	4	1	4	2	34	39	
3	3	2	2	2	36	42	
3	3	2	4	2	37	42	
3	5	5	4	2	38	45	
8	1	5	4	1	45	
7	2	4	6	1	48	
2	4	1	4	1	41	
1	3	3	2	1	41	
1	1	4	4	1	43	
4	2	2	2	1	46	
1	4	5	4	1	44	
3	2	2	1	1	50	
1	3	2	3	1	47	
1	5	3	3	1	49	
1	3	2	1	1	50	
1	1	0	4	1	50	
1	1	6	2	1	51	
6	0	1	3	1	51	
0	0	0	0	0	
